NAME : HealthcareRouting.22079.tour
COMMENT : Length = 22079
COMMENT : Found by LKH-3 [Keld Helsgaun] Sun Apr 20 21:43:49 2025
TYPE : TOUR
DIMENSION : 52
TOUR_SECTION
23
26
5
33
15
16
30
43
34
40
50
44
14
2
29
38
41
12
45
37
10
4
32
35
36
52
48
20
25
51
21
7
13
24
42
11
18
27
46
28
17
19
3
49
39
6
47
22
9
1
8
31
-1
EOF
